# Solution for model GasLib-40
# Objective value = 5.2404004827132276e+01
loadshed[innode_1] 0
loadshed[innode_2] 0
loadshed[innode_3] 0
loadshed[innode_4] 0
loadshed[innode_5] 0
loadshed[innode_6] 0
loadshed[innode_7] 0
loadshed[innode_8] 0
loadshed[source_1] -8.0254851421516227e-02
loadshed[source_2] 7.7933374854658011e-02
loadshed[source_3] 3.3380299183616680e-01
loadshed[sink_1] 3.4334866954532683e-01
loadshed[sink_2] 0
loadshed[sink_3] 0
loadshed[sink_4] 0
loadshed[sink_5] 0
loadshed[sink_6] 0
loadshed[sink_7] 0
loadshed[sink_8] 0
loadshed[sink_9] 0
loadshed[sink_10] 0
loadshed[sink_11] 0
loadshed[sink_12] 1
loadshed[sink_13] 0
loadshed[sink_14] 0
loadshed[sink_15] 0
loadshed[sink_16] 0
loadshed[sink_17] 0
loadshed[sink_18] 0
loadshed[sink_19] 0
loadshed[sink_20] 0
loadshed[sink_21] 1
loadshed[sink_22] 0
loadshed[sink_23] 0
loadshed[sink_24] 8.6097264472518165e-01
loadshed[sink_25] 0
loadshed[sink_26] 0
loadshed[sink_27] 0
loadshed[sink_28] 0
loadshed[sink_29] 0
flow[source_1,sink_3] 1.7077778953201954e+02
flow[innode_1,sink_16] 1.6354166666666970e+01
flow[innode_6,sink_13] 9.1598965913222514e+00
flow[sink_13,sink_14] -7.1942700753444164e+00
flow[sink_14,sink_10] -2.3548436742011063e+01
flow[sink_25,sink_26] 1.1270286519091940e+02
flow[sink_26,sink_9] 0
flow[sink_9,sink_18] -1.6354166666669244e+01
flow[sink_26,sink_4] 9.6348698524252654e+01
flow[sink_4,sink_20] -1.4541643102130365e+01
flow[sink_18,sink_6] -3.2708333333335915e+01
flow[sink_25,innode_8] -1.3806945619868316e+02
flow[sink_6,sink_7] -7.6155651966813338e+01
flow[sink_6,sink_22] 27.0931519668108
flow[sink_7,sink_24] 2.2736765393902565e+00
flow[sink_22,sink_1] 1.0738985300144135e+01
flow[sink_24,sink_21] 0
flow[sink_21,sink_12] 0
flow[sink_7,sink_5] -9.4783495172870289e+01
flow[sink_5,sink_17] -1.1113766183953696e+02
flow[sink_17,sink_4] -9.4536174959716391e+01
flow[sink_17,sink_8] -3.2955653546487227e+01
flow[sink_3,sink_23] 16.3541666666697
flow[sink_8,sink_20] -49.3098202131539
flow[sink_25,sink_20] 8.0205629981950892e+01
flow[sink_25,sink_15] -8.0353102232177037e+01
flow[sink_15,sink_29] -5.4923952830470057e+01
flow[sink_29,sink_28] 1.6354166666667879e+01
flow[sink_29,sink_2] 5.8137482735040294e+01
flow[sink_2,sink_15] 4.1783316068373665e+01
flow[sink_29,innode_7] -1.4576976889884520e+02
flow[innode_4,sink_19] 0
flow[sink_19,innode_3] 3.5433830639503810e+01
flow[innode_4,innode_5] 1.0531927007534487e+02
flow[sink_27,innode_5] -1.0531927007534487e+02
flow[sink_27,sink_19] 88.9651034086782
flow[sink_10,sink_11] 3.2708333333333641e+01
flow[sink_10,innode_2] -3.7177106102507480e+01
flow[sink_10,innode_3] -3.5433830639503810e+01
flow[innode_6,sink_25] -9.1598965913222514e+00
flow[sink_11,innode_1] 1.6354166666666970e+01
flow[sink_19,innode_2] 3.7177106102507480e+01
flow[source_3,innode_4] 1.0531927007534487e+02
flow[source_2,innode_7] 1.4576976889884520e+02
flow[sink_3,innode_8] 1.3806945619868316e+02
pressure[innode_1] 7.6040071987669464e+01
pressure[innode_2] 7.8156736899267557e+01
pressure[innode_3] 7.8078272693762386e+01
pressure[innode_4] 81.01325
pressure[innode_5] 8.0940805852539867e+01
pressure[innode_6] 7.5115587522850035e+01
pressure[innode_7] 81.01325
pressure[innode_8] 8.0442405089074725e+01
pressure[source_1] 81.01325
pressure[source_2] 81.01325
pressure[source_3] 81.01325
pressure[sink_1] 1.0132500000000002e+00
pressure[sink_2] 7.5641791684562079e+01
pressure[sink_3] 8.0442405089074725e+01
pressure[sink_4] 5.4927968022238694e+01
pressure[sink_5] 4.3036154657727039e+01
pressure[sink_6] 2.57100464945288
pressure[sink_7] 3.6164402233573787e+00
pressure[sink_8] 52.558609563671
pressure[sink_9] 1.1058522701466424e+00
pressure[sink_10] 7.6191773295273009e+01
pressure[sink_11] 7.6040071987669464e+01
pressure[sink_12] 1.01325
pressure[sink_13] 75.065090543703
pressure[sink_14] 7.5077965302819123e+01
pressure[sink_15] 7.5505378366493375e+01
pressure[sink_16] 7.5018422152851784e+01
pressure[sink_17] 5.1315107138679465e+01
pressure[sink_18] 1.6975947639463969e+00
pressure[sink_19] 7.8156736899267557e+01
pressure[sink_20] 5.5994810575161154e+01
pressure[sink_21] 1.01325
pressure[sink_22] 1.7117754226240314e+00
pressure[sink_23] 8.0277687077414939e+01
pressure[sink_24] 1.01325
pressure[sink_25] 7.5115587522850035e+01
pressure[sink_26] 67.1779909141759
pressure[sink_27] 8.0066850520000457e+01
pressure[sink_28] 7.6819197460752292e+01
pressure[sink_29] 7.7114479734369468e+01
interdiction[source_1,sink_3] 0
interdiction[innode_1,sink_16] 0
interdiction[innode_6,sink_13] 0
interdiction[sink_13,sink_14] 0
interdiction[sink_14,sink_10] 0
interdiction[sink_25,sink_26] 0
interdiction[sink_26,sink_9] 1
interdiction[sink_9,sink_18] 0
interdiction[sink_26,sink_4] 0
interdiction[sink_4,sink_20] 0
interdiction[sink_18,sink_6] 0
interdiction[sink_25,innode_8] 0
interdiction[sink_6,sink_7] 0
interdiction[sink_6,sink_22] 0
interdiction[sink_7,sink_24] 0
interdiction[sink_22,sink_1] 0
interdiction[sink_24,sink_21] 0
interdiction[sink_21,sink_12] 0
interdiction[sink_7,sink_5] 0
interdiction[sink_5,sink_17] 0
interdiction[sink_17,sink_4] 0
interdiction[sink_17,sink_8] 0
interdiction[sink_3,sink_23] 0
interdiction[sink_8,sink_20] 0
interdiction[sink_25,sink_20] 0
interdiction[sink_25,sink_15] 0
interdiction[sink_15,sink_29] 0
interdiction[sink_29,sink_28] 0
interdiction[sink_29,sink_2] 0
interdiction[sink_2,sink_15] 0
interdiction[sink_29,innode_7] 0
interdiction[innode_4,sink_19] 1
interdiction[sink_19,innode_3] 0
interdiction[innode_4,innode_5] 0
interdiction[sink_27,innode_5] 0
interdiction[sink_27,sink_19] 0
interdiction[sink_10,sink_11] 0
interdiction[sink_10,innode_2] 0
interdiction[sink_10,innode_3] 0
interdiction[innode_6,sink_25] 0
interdiction[sink_11,innode_1] 0
interdiction[sink_19,innode_2] 0
interdiction[source_3,innode_4] 0
interdiction[source_2,innode_7] 0
interdiction[sink_3,innode_8] 0
WCcheckFlow[source_1,sink_3] 39
WCcheckFlow[innode_1,sink_16] 1
WCcheckFlow[innode_6,sink_13] 13
WCcheckFlow[sink_13,sink_14] 12
WCcheckFlow[sink_14,sink_10] 11
WCcheckFlow[sink_25,sink_26] 15
WCcheckFlow[sink_26,sink_9] 0
WCcheckFlow[sink_9,sink_18] -1
WCcheckFlow[sink_26,sink_4] 14
WCcheckFlow[sink_4,sink_20] 1
WCcheckFlow[sink_18,sink_6] -2
WCcheckFlow[sink_25,innode_8] -36
WCcheckFlow[sink_6,sink_7] -5
WCcheckFlow[sink_6,sink_22] 2
WCcheckFlow[sink_7,sink_24] 3
WCcheckFlow[sink_22,sink_1] 1
WCcheckFlow[sink_24,sink_21] 2
WCcheckFlow[sink_21,sink_12] 1
WCcheckFlow[sink_7,sink_5] -9
WCcheckFlow[sink_5,sink_17] -10
WCcheckFlow[sink_17,sink_4] -12
WCcheckFlow[sink_17,sink_8] 1
WCcheckFlow[sink_3,sink_23] 1
WCcheckFlow[sink_8,sink_20] 0
WCcheckFlow[sink_25,sink_20] 0
WCcheckFlow[sink_25,sink_15] 6
WCcheckFlow[sink_15,sink_29] 5
WCcheckFlow[sink_29,sink_28] 1
WCcheckFlow[sink_29,sink_2] 1
WCcheckFlow[sink_2,sink_15] 0
WCcheckFlow[sink_29,innode_7] 2
WCcheckFlow[innode_4,sink_19] 0
WCcheckFlow[sink_19,innode_3] -5
WCcheckFlow[innode_4,innode_5] -2
WCcheckFlow[sink_27,innode_5] 3
WCcheckFlow[sink_27,sink_19] -4
WCcheckFlow[sink_10,sink_11] 3
WCcheckFlow[sink_10,innode_2] 1
WCcheckFlow[sink_10,innode_3] 6
WCcheckFlow[innode_6,sink_25] -14
WCcheckFlow[sink_11,innode_1] 2
WCcheckFlow[sink_19,innode_2] 0
WCcheckFlow[source_3,innode_4] -1
WCcheckFlow[source_2,innode_7] -1
WCcheckFlow[sink_3,innode_8] 37
